language ESSENCE' 1.0

letting jobs = 102
letting horizon = 804
letting resourcesRenew = 2
letting resourcesNonrenew = 2
letting resourceLimits = [25, 29, 342, 406]
letting successors = [[2, 3, 4, 5, 6, 7, 9, 10, 11, 12, 13, 16, 17, 19, 21, 22, 26, 27], [51, 45, 42, 41, 40, 39, 37, 36, 33, 29, 28, 25, 14], [51, 50, 48, 41, 37, 36, 35, 29, 8], [51, 45, 42, 41, 37, 36, 35, 32, 28, 25, 20, 18], [48, 42, 39, 36, 32, 28, 25, 15], [50, 48, 45, 39, 38, 37, 35, 34, 33, 29, 28], [53, 50, 41, 28, 15], [45, 43, 40, 33, 32, 28, 25, 18], [51, 45, 41, 35, 34, 32, 28, 18], [61, 55, 50, 48, 44, 42, 35, 34, 33, 29, 28], [57, 56, 55, 54, 53, 50, 44, 39, 36, 35, 30, 28], [62, 59, 56, 53, 44, 41, 39, 38, 34, 28, 23], [57, 53, 45, 44, 41, 40, 35, 34, 33, 28], [60, 56, 55, 50, 48, 46, 38, 32, 24], [60, 55, 45, 44, 38, 34, 33, 24], [68, 60, 57, 56, 52, 51, 49, 46, 38, 37, 35, 32], [70, 62, 60, 59, 56, 55, 53, 52, 49, 46, 39, 38, 31], [62, 61, 60, 59, 57, 56, 55, 54, 53, 52, 49, 46, 44, 38], [71, 61, 57, 56, 55, 53, 52, 47, 46, 43, 40, 37], [71, 70, 62, 60, 59, 58, 56, 54, 52, 50, 48, 38, 34], [59, 56, 52, 32, 28], [72, 67, 66, 65, 62, 61, 60, 57, 54, 49, 46, 44, 43], [71, 70, 67, 64, 60, 55, 54, 52, 48, 47, 46, 45], [70, 67, 58, 57, 54, 49, 47, 35], [71, 70, 61, 60, 59, 54, 38, 34], [84, 61, 59, 54, 44, 34], [84, 76, 74, 72, 71, 66, 57, 56, 54, 50, 43], [83, 75, 70, 65, 60, 58, 49, 47, 46], [84, 83, 76, 73, 70, 65, 62, 59, 58, 57, 56, 53], [84, 82, 77, 72, 69, 66, 64, 61, 59, 58, 52, 48], [77, 76, 68, 65, 64, 63, 61, 58, 57, 47], [84, 82, 72, 69, 67, 63, 61, 54, 44], [84, 83, 82, 77, 76, 70, 69, 65, 64, 58, 56, 54, 52], [83, 81, 76, 75, 68, 67, 64, 63, 47], [83, 76, 74, 72, 65, 64, 63, 62, 43], [84, 82, 81, 80, 76, 75, 74, 73, 72, 70, 69, 68, 67, 65, 64], [101, 84, 82, 80, 79, 73, 44], [98, 97, 96, 82, 77, 76, 74, 72, 69, 67, 66, 63], [100, 99, 97, 96, 84, 83, 82, 77, 76, 75, 74, 73, 66, 64], [95, 94, 84, 79, 77, 76, 75, 73, 72, 70, 69, 68, 67], [101, 97, 84, 82, 81, 80, 76, 75, 74, 65, 63, 61], [99, 83, 76, 73, 71, 70, 64, 60, 56], [100, 95, 94, 92, 79, 77, 75, 73, 69, 59], [83, 77, 76, 75, 74, 70, 64, 58], [101, 98, 92, 84, 74, 69, 66, 61], [100, 99, 98, 97, 94, 90, 82, 80, 79, 77, 76, 63], [101, 100, 97, 96, 93, 82, 78, 74, 72, 69, 66], [101, 100, 95, 91, 80, 76, 73, 68, 65], [100, 98, 97, 96, 94, 93, 92, 91, 84, 82, 76, 71, 69], [99, 97, 96, 83, 80, 79, 64, 63], [99, 94, 80, 79, 77, 74, 70, 63], [99, 97, 96, 95, 94, 93, 92, 89, 88, 87, 80, 78, 75, 74], [96, 74, 72, 69, 64], [98, 96, 94, 92, 91, 90, 88, 87, 86, 79, 73], [97, 81, 80, 78, 65], [101, 98, 97, 95, 94, 92, 87, 85, 80, 75], [96, 89, 87, 86, 82, 75, 69], [100, 96, 93, 92, 91, 90, 89, 88, 87, 86, 78], [101, 98, 97, 96, 91, 90, 89, 88, 87, 85, 80], [100, 98, 96, 94, 92, 91, 90, 88, 86, 85, 84], [100, 88, 87, 86, 83, 79, 73], [97, 95, 93, 92, 90, 87, 86, 85, 77], [95, 92, 91, 89, 88, 87, 86, 73], [98, 95, 94, 92, 91, 90, 89, 88, 78], [99, 94, 93, 92, 88, 87, 86, 79], [95, 94, 91, 88, 87, 80, 79], [101, 100, 93, 91, 90, 89, 88, 86], [98, 96, 92, 90, 87, 86, 78], [99, 90, 88, 85], [97, 89, 87, 85], [90, 89, 86, 85], [89, 87, 85], [93, 78], [90, 86], [91, 90], [78], [81], [85], [89], [86], [88], [95], [91], [87], [102], [102], [102], [102], [102], [102], [102], [102], [102], [102], [102], [102], [102], [102], [102], [102], [102], []]
letting durations = [[0], [3, 5, 8], [1, 2, 7], [4, 8, 10], [1, 1, 9], [2, 4, 6], [1, 3, 6], [2, 8, 8], [7, 9, 10], [2, 6, 7], [3, 3, 4], [4, 8, 9], [8, 9, 10], [2, 5, 10], [3, 4, 9], [1, 1, 5], [5, 7, 9], [4, 6, 9], [2, 3, 10], [2, 4, 9], [2, 6, 7], [1, 7, 9], [5, 6, 10], [4, 8, 9], [5, 6, 7], [4, 4, 5], [3, 6, 9], [1, 7, 9], [4, 6, 7], [6, 6, 7], [4, 8, 9], [1, 8, 10], [4, 5, 8], [2, 6, 8], [1, 2, 8], [3, 4, 4], [5, 5, 6], [6, 6, 8], [6, 6, 8], [5, 5, 7], [1, 2, 9], [8, 8, 9], [3, 6, 9], [2, 6, 10], [3, 7, 10], [2, 6, 8], [1, 3, 7], [8, 8, 10], [1, 7, 10], [3, 10, 10], [4, 8, 9], [2, 7, 8], [2, 8, 9], [2, 4, 6], [5, 9, 9], [3, 5, 7], [1, 3, 8], [1, 7, 10], [2, 6, 9], [1, 3, 3], [6, 8, 9], [7, 9, 10], [4, 4, 5], [3, 7, 8], [3, 5, 10], [9, 9, 10], [1, 4, 9], [1, 3, 6], [3, 8, 10], [3, 4, 7], [2, 3, 5], [1, 6, 7], [5, 5, 8], [2, 5, 10], [2, 4, 10], [1, 4, 8], [6, 9, 9], [2, 4, 5], [1, 2, 5], [2, 9, 10], [1, 2, 3], [7, 7, 7], [2, 7, 8], [3, 6, 9], [1, 4, 4], [3, 8, 10], [2, 7, 9], [1, 7, 7], [4, 4, 7], [3, 5, 5], [2, 6, 9], [7, 8, 9], [4, 6, 7], [1, 2, 7], [3, 8, 9], [9, 10, 10], [4, 5, 9], [2, 3, 8], [4, 5, 10], [2, 5, 6], [5, 8, 10], [0]]
letting resourceUsage = [[[0, 0, 0, 0]], [[0, 3, 0, 10], [3, 0, 5, 0], [2, 0, 0, 9]], [[0, 3, 5, 0], [0, 2, 5, 0], [0, 2, 0, 7]], [[3, 0, 7, 0], [0, 3, 5, 0], [0, 2, 5, 0]], [[4, 0, 4, 0], [0, 1, 0, 5], [3, 0, 2, 0]], [[0, 3, 0, 10], [0, 3, 2, 0], [0, 3, 1, 0]], [[0, 3, 0, 3], [1, 0, 5, 0], [0, 3, 4, 0]], [[2, 0, 4, 0], [0, 4, 2, 0], [0, 3, 0, 1]], [[0, 1, 0, 10], [0, 1, 6, 0], [0, 1, 0, 5]], [[0, 5, 0, 9], [0, 2, 5, 0], [2, 0, 0, 7]], [[0, 5, 6, 0], [0, 5, 0, 3], [0, 5, 0, 2]], [[4, 0, 8, 0], [2, 0, 0, 4], [0, 4, 6, 0]], [[0, 2, 0, 7], [3, 0, 5, 0], [3, 0, 0, 4]], [[2, 0, 10, 0], [0, 1, 9, 0], [1, 0, 9, 0]], [[4, 0, 0, 9], [4, 0, 0, 7], [0, 5, 0, 6]], [[0, 3, 5, 0], [4, 0, 0, 2], [0, 2, 0, 2]], [[4, 0, 10, 0], [0, 5, 6, 0], [0, 5, 0, 6]], [[4, 0, 6, 0], [3, 0, 5, 0], [0, 3, 0, 6]], [[4, 0, 2, 0], [3, 0, 2, 0], [3, 0, 0, 5]], [[5, 0, 5, 0], [2, 0, 0, 2], [0, 5, 0, 2]], [[2, 0, 2, 0], [0, 4, 1, 0], [2, 0, 0, 7]], [[0, 4, 0, 7], [0, 3, 0, 4], [0, 3, 0, 2]], [[0, 2, 0, 2], [2, 0, 0, 2], [2, 0, 6, 0]], [[5, 0, 0, 10], [5, 0, 9, 0], [5, 0, 0, 6]], [[0, 5, 0, 6], [0, 5, 2, 0], [1, 0, 1, 0]], [[4, 0, 7, 0], [0, 2, 6, 0], [2, 0, 5, 0]], [[3, 0, 6, 0], [0, 3, 4, 0], [0, 3, 0, 4]], [[3, 0, 7, 0], [2, 0, 4, 0], [0, 3, 0, 5]], [[0, 3, 0, 10], [0, 3, 0, 8], [0, 3, 6, 0]], [[0, 2, 5, 0], [2, 0, 0, 4], [2, 0, 0, 3]], [[0, 1, 0, 3], [4, 0, 5, 0], [0, 1, 0, 2]], [[4, 0, 0, 8], [3, 0, 0, 5], [0, 2, 0, 5]], [[4, 0, 5, 0], [4, 0, 0, 4], [4, 0, 4, 0]], [[2, 0, 0, 1], [0, 3, 0, 1], [0, 2, 0, 1]], [[0, 3, 2, 0], [0, 3, 1, 0], [0, 1, 0, 7]], [[0, 4, 0, 7], [3, 0, 3, 0], [0, 3, 0, 6]], [[0, 4, 0, 3], [3, 0, 3, 0], [0, 3, 1, 0]], [[0, 5, 0, 4], [2, 0, 0, 3], [2, 0, 0, 2]], [[0, 2, 0, 5], [0, 1, 4, 0], [1, 0, 0, 2]], [[0, 2, 0, 5], [1, 0, 9, 0], [1, 0, 8, 0]], [[3, 0, 4, 0], [0, 3, 2, 0], [2, 0, 1, 0]], [[4, 0, 0, 5], [0, 4, 0, 4], [3, 0, 2, 0]], [[4, 0, 0, 8], [4, 0, 0, 4], [2, 0, 1, 0]], [[0, 3, 0, 8], [0, 3, 3, 0], [2, 0, 2, 0]], [[4, 0, 8, 0], [0, 2, 0, 7], [0, 2, 4, 0]], [[0, 3, 0, 10], [0, 3, 2, 0], [4, 0, 0, 10]], [[0, 3, 1, 0], [0, 2, 0, 4], [3, 0, 1, 0]], [[4, 0, 7, 0], [0, 3, 5, 0], [0, 3, 0, 4]], [[0, 4, 1, 0], [0, 3, 0, 7], [0, 3, 0, 6]], [[0, 2, 0, 10], [4, 0, 6, 0], [0, 2, 0, 8]], [[3, 0, 0, 6], [0, 1, 7, 0], [3, 0, 6, 0]], [[4, 0, 1, 0], [2, 0, 1, 0], [0, 2, 1, 0]], [[5, 0, 4, 0], [3, 0, 0, 2], [0, 1, 0, 2]], [[1, 0, 0, 7], [1, 0, 0, 6], [1, 0, 5, 0]], [[0, 3, 8, 0], [1, 0, 8, 0], [0, 2, 0, 4]], [[4, 0, 0, 4], [0, 3, 0, 3], [0, 3, 3, 0]], [[0, 1, 0, 8], [0, 1, 0, 5], [1, 0, 0, 4]], [[0, 4, 0, 4], [3, 0, 0, 4], [0, 2, 0, 4]], [[4, 0, 0, 2], [0, 4, 0, 1], [0, 3, 0, 1]], [[0, 2, 6, 0], [0, 1, 0, 9], [3, 0, 4, 0]], [[0, 4, 4, 0], [1, 0, 0, 2], [1, 0, 3, 0]], [[0, 1, 2, 0], [0, 1, 1, 0], [0, 1, 0, 5]], [[0, 5, 5, 0], [2, 0, 0, 8], [2, 0, 4, 0]], [[1, 0, 0, 8], [1, 0, 0, 7], [0, 1, 7, 0]], [[5, 0, 6, 0], [4, 0, 5, 0], [2, 0, 5, 0]], [[0, 3, 0, 3], [0, 3, 3, 0], [0, 2, 2, 0]], [[0, 1, 0, 3], [2, 0, 0, 1], [2, 0, 4, 0]], [[0, 3, 6, 0], [2, 0, 6, 0], [0, 3, 0, 5]], [[0, 4, 6, 0], [0, 4, 5, 0], [0, 4, 0, 8]], [[0, 3, 9, 0], [2, 0, 0, 8], [1, 0, 0, 8]], [[4, 0, 0, 2], [4, 0, 6, 0], [4, 0, 5, 0]], [[0, 4, 8, 0], [1, 0, 0, 6], [0, 4, 0, 6]], [[0, 2, 5, 0], [0, 2, 0, 5], [3, 0, 4, 0]], [[3, 0, 0, 8], [0, 1, 0, 6], [2, 0, 0, 5]], [[0, 4, 6, 0], [0, 3, 0, 1], [0, 2, 0, 1]], [[3, 0, 3, 0], [0, 3, 0, 8], [0, 3, 2, 0]], [[3, 0, 0, 9], [0, 4, 0, 9], [2, 0, 0, 9]], [[1, 0, 0, 5], [1, 0, 0, 4], [0, 3, 3, 0]], [[0, 4, 4, 0], [4, 0, 0, 8], [0, 4, 3, 0]], [[0, 4, 0, 1], [0, 3, 0, 1], [0, 2, 0, 1]], [[0, 2, 5, 0], [0, 2, 4, 0], [0, 2, 3, 0]], [[0, 4, 0, 10], [2, 0, 3, 0], [2, 0, 0, 6]], [[2, 0, 5, 0], [0, 4, 0, 3], [1, 0, 3, 0]], [[0, 2, 0, 8], [4, 0, 0, 5], [0, 2, 0, 5]], [[0, 3, 0, 8], [3, 0, 3, 0], [0, 2, 0, 8]], [[0, 4, 5, 0], [0, 3, 0, 1], [0, 2, 0, 1]], [[5, 0, 9, 0], [4, 0, 7, 0], [4, 0, 0, 9]], [[5, 0, 9, 0], [5, 0, 6, 0], [0, 2, 0, 9]], [[0, 4, 6, 0], [0, 4, 0, 6], [2, 0, 5, 0]], [[4, 0, 5, 0], [2, 0, 0, 4], [2, 0, 4, 0]], [[0, 4, 0, 7], [3, 0, 4, 0], [3, 0, 0, 7]], [[0, 3, 0, 7], [0, 3, 5, 0], [0, 1, 5, 0]], [[0, 5, 0, 5], [3, 0, 0, 5], [0, 2, 6, 0]], [[0, 5, 7, 0], [0, 5, 6, 0], [4, 0, 5, 0]], [[3, 0, 5, 0], [0, 3, 0, 5], [1, 0, 0, 5]], [[5, 0, 5, 0], [3, 0, 3, 0], [0, 3, 0, 5]], [[0, 3, 8, 0], [0, 2, 0, 3], [0, 2, 0, 2]], [[0, 2, 0, 8], [0, 1, 5, 0], [0, 1, 1, 0]], [[0, 5, 0, 10], [0, 2, 0, 8], [1, 0, 0, 7]], [[3, 0, 7, 0], [0, 5, 6, 0], [0, 5, 5, 0]], [[0, 4, 5, 0], [3, 0, 4, 0], [3, 0, 0, 3]], [[0, 0, 0, 0]]]
